Ce1 Zr7 O16                             
   1.0000000000000000     
     3.6046718587654110    0.0000000000000000    0.0000000000000000
     0.0000000000000000    7.2093437175308219    0.0000000000000000
     0.0000000000000000    0.0000000000000000   10.4735746361232405
   Ce   Zr   O 
     1     7    16
Direct
  0.5000000140000012  0.7500000069999970  0.7495757833502075
  0.0000000000000000  0.0036031665173320  0.0030284628736044
  0.0000000000000000 -0.0010894718539213  0.4964478004550761
  0.0000000000000000  0.4963968334826679  0.0030284628736044
  0.0000000000000000  0.5010894718539215  0.4964478004550761
  0.5000000140000012  0.2500000069999970  0.2515022394255517
  0.5000000140000012  0.2500000069999970  0.7499358940785961
  0.5000000140000012  0.7500000069999970  0.2481881018842196
  0.0000000000000000  0.2500000069999970  0.1506703123325413
  0.0000000000000000  0.2500000069999970  0.6525495110996323
  0.0000000000000000  0.7500000069999970  0.1475340348281438
 -0.0000000000000000  0.7500000069999970  0.6303298671438369
 -0.0000000000000000  0.2500000069999970  0.3984625307018354
  0.0000000000000000  0.2500000069999970  0.9029804675107295
 -0.0000000000000000  0.7500000069999970  0.3925009135757889
  0.0000000000000000  0.7500000069999970  0.9014921451097936
  0.5000000140000012  0.0006042200496013  0.1042553187688465
  0.5000000140000012  0.0102095901308771  0.5985495944154420
  0.5000000140000012  0.4993957799503990  0.1042553187688465
  0.5000000140000012  0.4897904098691230  0.5985495944154420
  0.5000000140000012 -0.0003160602538007  0.3511604221117887
  0.5000000140000012  0.0099370416053044  0.8586975408548074
  0.5000000140000012  0.5003160602538005  0.3511604221117887
  0.5000000140000012  0.4900629583946958  0.8586975408548074

  0.00000000E+00  0.00000000E+00  0.00000000E+00
  0.00000000E+00  0.00000000E+00  0.00000000E+00
  0.00000000E+00  0.00000000E+00  0.00000000E+00
  0.00000000E+00  0.00000000E+00  0.00000000E+00
  0.00000000E+00  0.00000000E+00  0.00000000E+00
  0.00000000E+00  0.00000000E+00  0.00000000E+00
  0.00000000E+00  0.00000000E+00  0.00000000E+00
  0.00000000E+00  0.00000000E+00  0.00000000E+00
  0.00000000E+00  0.00000000E+00  0.00000000E+00
  0.00000000E+00  0.00000000E+00  0.00000000E+00
  0.00000000E+00  0.00000000E+00  0.00000000E+00
  0.00000000E+00  0.00000000E+00  0.00000000E+00
  0.00000000E+00  0.00000000E+00  0.00000000E+00
  0.00000000E+00  0.00000000E+00  0.00000000E+00
  0.00000000E+00  0.00000000E+00  0.00000000E+00
  0.00000000E+00  0.00000000E+00  0.00000000E+00
  0.00000000E+00  0.00000000E+00  0.00000000E+00
  0.00000000E+00  0.00000000E+00  0.00000000E+00
  0.00000000E+00  0.00000000E+00  0.00000000E+00
  0.00000000E+00  0.00000000E+00  0.00000000E+00
  0.00000000E+00  0.00000000E+00  0.00000000E+00
  0.00000000E+00  0.00000000E+00  0.00000000E+00
  0.00000000E+00  0.00000000E+00  0.00000000E+00
  0.00000000E+00  0.00000000E+00  0.00000000E+00
