Ce1 Zr7 O16                             
   1.0000000000000000     
     3.6063006013167795    0.0000000000000000    5.2391535191116985
    -3.6063006013167795    7.2126012026335591    0.0000000000000000
    -3.6063006013167795    0.0000000000000000    5.2391535191116985
   Ce   Zr   O 
     1     7    16
Direct
  0.8726735786373297  0.7500000069999970  0.6226735586373281
  0.0044444644298348  0.0020573677492822 -0.0042558437220681
  0.4978015240272141  0.0020573677492822  0.5023870966805526
  0.2457441562779319  0.4979426322507178  0.7544444644298349
  0.7523870966805526  0.4979426322507178  0.2478015240272140
  0.6230327896534327  0.2456206707242059  0.8774121059292220
  0.1274121259292239  0.2543793432757882  0.3730327696534311
  0.3774598228922268  0.7500000069999970  0.1274598028922252
  0.2765463317268432  0.2500000069999970  0.0265463247268461
  0.7765463317268431  0.2500000069999970  0.5265463247268460
  0.5001643018199423  0.7500000069999970  0.7791710025003512
  0.0291710095003481  0.7500000069999970  0.2501642948199453
  0.5255824746610755  0.2500000069999970  0.2755824676610786
  0.0255824746610757  0.2500000069999970  0.7755824676610785
  0.7662937051589193  0.7500000069999970  0.0290819483736929
  0.2790819553736900  0.7500000069999970  0.5162936981589222
  0.3575775457083413  0.0106613615245982  0.8469161701837418
  0.8514944650381967  0.0048866933194298  0.3466077577187657
  0.5966077717187667  0.4951133066805701  0.6014944510381955
  0.0969161841837431  0.4893386384754019  0.1075775317083402
  0.6002565444937881 -0.0000538670554414  0.1003103975492281
  0.1131652539259100  0.0094173737004094  0.6037478662254994
  0.8537478802255005  0.4905826262995907  0.8631652399259089
  0.3503104115492295  0.5000538670554416  0.3502565304937867

  0.00000000E+00  0.00000000E+00  0.00000000E+00
  0.00000000E+00  0.00000000E+00  0.00000000E+00
  0.00000000E+00  0.00000000E+00  0.00000000E+00
  0.00000000E+00  0.00000000E+00  0.00000000E+00
  0.00000000E+00  0.00000000E+00  0.00000000E+00
  0.00000000E+00  0.00000000E+00  0.00000000E+00
  0.00000000E+00  0.00000000E+00  0.00000000E+00
  0.00000000E+00  0.00000000E+00  0.00000000E+00
  0.00000000E+00  0.00000000E+00  0.00000000E+00
  0.00000000E+00  0.00000000E+00  0.00000000E+00
  0.00000000E+00  0.00000000E+00  0.00000000E+00
  0.00000000E+00  0.00000000E+00  0.00000000E+00
  0.00000000E+00  0.00000000E+00  0.00000000E+00
  0.00000000E+00  0.00000000E+00  0.00000000E+00
  0.00000000E+00  0.00000000E+00  0.00000000E+00
  0.00000000E+00  0.00000000E+00  0.00000000E+00
  0.00000000E+00  0.00000000E+00  0.00000000E+00
  0.00000000E+00  0.00000000E+00  0.00000000E+00
  0.00000000E+00  0.00000000E+00  0.00000000E+00
  0.00000000E+00  0.00000000E+00  0.00000000E+00
  0.00000000E+00  0.00000000E+00  0.00000000E+00
  0.00000000E+00  0.00000000E+00  0.00000000E+00
  0.00000000E+00  0.00000000E+00  0.00000000E+00
  0.00000000E+00  0.00000000E+00  0.00000000E+00
