Ce1 Zr7 O16                             
   1.0000000000000000     
     3.6046493595049571    0.0000000000000000    0.0000000000000000
     0.0000000000000000   -3.6046493595049571   10.4735092632702180
     0.0000000000000000   -7.2092987190099143    0.0000000000000000
   Ce   Zr   O 
     1     7    16
Direct
  0.5000000140000012  0.7498827019145977  0.8750586420427038
 -0.0000000000000000  0.0029637124773404  0.0031631896889842
 -0.0000000000000000  0.4965519689536921  0.7520966380570002
  0.0000000000000000  0.0029637124773404  0.4938730978336754
 -0.0000000000000000  0.4965519689536921  0.2513513929893074
  0.5000000140000012  0.2500336585474657  0.6249831637262701
  0.5000000140000012  0.7495952799231873  0.3752023530384093
  0.5000000140000012  0.2498284062257603  0.1250857898871228
 -0.0000000000000000  0.1512441859493320  0.6743779005253316
 -0.0000000000000000  0.6519010311344856  0.4240494779327549
 -0.0000000000000000  0.1471789158795587  0.1764105355602183
 -0.0000000000000000  0.6305962686231619  0.9347018591884168
  0.0000000000000000  0.3989652555482077  0.5505173657258939
 -0.0000000000000000  0.9014331608881735  0.2992834130559109
 -0.0000000000000000  0.3921139697245631  0.0539430086377162
 -0.0000000000000000  0.9027969883761228  0.7986014993119358
  0.5000000140000012  0.1041824043865157  0.9476405128494796
  0.5000000140000012  0.5986535841100484  0.6905196847237794
  0.5000000140000012  0.1041824043865157  0.4481770837640012
  0.5000000140000012  0.5986535841100484  0.2108267321661685
  0.5000000140000012  0.3511968728902011  0.8248377813946293
  0.5000000140000012  0.8586665858148970  0.5605750551477993
  0.5000000140000012  0.3511968728902011  0.3239653467151657
  0.5000000140000012  0.8586665858148970  0.0807583600373002

  0.00000000E+00  0.00000000E+00  0.00000000E+00
  0.00000000E+00  0.00000000E+00  0.00000000E+00
  0.00000000E+00  0.00000000E+00  0.00000000E+00
  0.00000000E+00  0.00000000E+00  0.00000000E+00
  0.00000000E+00  0.00000000E+00  0.00000000E+00
  0.00000000E+00  0.00000000E+00  0.00000000E+00
  0.00000000E+00  0.00000000E+00  0.00000000E+00
  0.00000000E+00  0.00000000E+00  0.00000000E+00
  0.00000000E+00  0.00000000E+00  0.00000000E+00
  0.00000000E+00  0.00000000E+00  0.00000000E+00
  0.00000000E+00  0.00000000E+00  0.00000000E+00
  0.00000000E+00  0.00000000E+00  0.00000000E+00
  0.00000000E+00  0.00000000E+00  0.00000000E+00
  0.00000000E+00  0.00000000E+00  0.00000000E+00
  0.00000000E+00  0.00000000E+00  0.00000000E+00
  0.00000000E+00  0.00000000E+00  0.00000000E+00
  0.00000000E+00  0.00000000E+00  0.00000000E+00
  0.00000000E+00  0.00000000E+00  0.00000000E+00
  0.00000000E+00  0.00000000E+00  0.00000000E+00
  0.00000000E+00  0.00000000E+00  0.00000000E+00
  0.00000000E+00  0.00000000E+00  0.00000000E+00
  0.00000000E+00  0.00000000E+00  0.00000000E+00
  0.00000000E+00  0.00000000E+00  0.00000000E+00
  0.00000000E+00  0.00000000E+00  0.00000000E+00
