Ce1 Zr7 O16                             
   1.0000000000000000     
     3.6058439034181795    0.0000000000000000    0.0000000000000000
     0.0000000000000000    7.2116878068363590    5.2384900385350228
     0.0000000000000000   -7.2116878068363590    5.2384900385350228
   Ce   Zr   O 
     1     7    16
Direct
  0.5000000140000012  0.6259685230732500  0.8759685170732566
 -0.0000000000000000  0.0058647112493754  0.0003822575825010
 -0.0000000000000000  0.4945100277519804  0.4977644375141498
  0.0000000000000000  0.2477644375141498  0.7445100277519804
  0.0000000000000000  0.7503822575825011  0.2558647112493753
  0.5000000140000012  0.3732623684496236  0.1288768996255525
  0.5000000140000012  0.8788769056255457  0.6232623624496302
  0.5000000140000012  0.1213022019424370  0.3713021959424436
 -0.0000000000000000  0.2717026497377847  0.0326148575986852
  0.0000000000000000  0.7826148645986822  0.5217026427377878
  0.0000000000000000  0.5060939615024238  0.7560939545024268
 -0.0000000000000000  0.0220913961438309  0.2720913891438339
  0.0000000000000000  0.5240993375148194  0.2777673393220507
 -0.0000000000000000  0.0277673463220478  0.7740993305148224
 -0.0000000000000000  0.7760021104372472  0.0260021034372500
  0.0000000000000000  0.2675642332704076  0.5175642262704102
  0.5000000140000012  0.1005935653468790  0.1047919709251630
  0.5000000140000012  0.6067745181532638  0.5926399182306505
  0.5000000140000012  0.3426399182306504  0.8567745181532638
  0.5000000140000012  0.8547919709251630  0.3505935653468790
  0.5000000140000012  0.3499095454260739  0.3533646886554615
  0.5000000140000012  0.8647046042447929  0.8513539723015755
  0.5000000140000012  0.6013539723015755  0.1147046042447930
  0.5000000140000012  0.1033646886554614  0.5999095454260739

  0.00000000E+00  0.00000000E+00  0.00000000E+00
  0.00000000E+00  0.00000000E+00  0.00000000E+00
  0.00000000E+00  0.00000000E+00  0.00000000E+00
  0.00000000E+00  0.00000000E+00  0.00000000E+00
  0.00000000E+00  0.00000000E+00  0.00000000E+00
  0.00000000E+00  0.00000000E+00  0.00000000E+00
  0.00000000E+00  0.00000000E+00  0.00000000E+00
  0.00000000E+00  0.00000000E+00  0.00000000E+00
  0.00000000E+00  0.00000000E+00  0.00000000E+00
  0.00000000E+00  0.00000000E+00  0.00000000E+00
  0.00000000E+00  0.00000000E+00  0.00000000E+00
  0.00000000E+00  0.00000000E+00  0.00000000E+00
  0.00000000E+00  0.00000000E+00  0.00000000E+00
  0.00000000E+00  0.00000000E+00  0.00000000E+00
  0.00000000E+00  0.00000000E+00  0.00000000E+00
  0.00000000E+00  0.00000000E+00  0.00000000E+00
  0.00000000E+00  0.00000000E+00  0.00000000E+00
  0.00000000E+00  0.00000000E+00  0.00000000E+00
  0.00000000E+00  0.00000000E+00  0.00000000E+00
  0.00000000E+00  0.00000000E+00  0.00000000E+00
  0.00000000E+00  0.00000000E+00  0.00000000E+00
  0.00000000E+00  0.00000000E+00  0.00000000E+00
  0.00000000E+00  0.00000000E+00  0.00000000E+00
  0.00000000E+00  0.00000000E+00  0.00000000E+00
