Ce1 Zr7 O16                             
   1.0000000000000000     
     3.6054585462368447    0.0000000000000000    0.0000000000000000
     0.0000000000000000    3.6054585462368447    5.2379302001699211
     0.0000000000000000  -10.8163756387105341    5.2379302001699211
   Ce   Zr   O 
     1     7    16
Direct
  0.5000000140000012  0.7511186033640150  0.7515363338138027
  0.0000000000000000  0.0027028117124325  0.0055315925772181
 -0.0000000000000000  0.7499389445551190  0.2512411865140700
 -0.0000000000000000  0.4953596741880782  0.4965387727243372
 -0.0000000000000000  0.2509998664602967  0.7450793799668916
  0.5000000140000012  0.4983852844647778  0.0034944004104639
  0.5000000140000012  0.2509587040232390  0.2487579733475448
  0.5000000140000012 -0.0006800217721276  0.4951027123777760
 -0.0000000000000000  0.3497096178441239  0.9561051404820711
 -0.0000000000000000  0.1011891468631566  0.1994859374821855
 -0.0000000000000000  0.8491161397203077  0.4457725480466389
 -0.0000000000000000  0.5710653412140084  0.6913615452511822
 -0.0000000000000000  0.7261294514027620  0.0783390214019961
 -0.0000000000000000  0.4727217075069063  0.3234309991636843
 -0.0000000000000000  0.2173028070966985  0.5687121534018008
 -0.0000000000000000  0.9777860301483627  0.8264660541162296
  0.5000000140000012  0.1536425130391190  0.0540177942824494
  0.5000000140000012  0.9028027192659284  0.2990112968740848
  0.5000000140000012  0.6543505336121022  0.5434915273415308
  0.5000000140000012  0.3957631365200707  0.8075511238162347
  0.5000000140000012  0.5272807038264263  0.1777071035329766
  0.5000000140000012  0.2771035081314228  0.4235545693264386
  0.5000000140000012  0.0432709955443614  0.6716494101373134
  0.5000000140000012  0.7819819372684100  0.9360614196111215

  0.00000000E+00  0.00000000E+00  0.00000000E+00
  0.00000000E+00  0.00000000E+00  0.00000000E+00
  0.00000000E+00  0.00000000E+00  0.00000000E+00
  0.00000000E+00  0.00000000E+00  0.00000000E+00
  0.00000000E+00  0.00000000E+00  0.00000000E+00
  0.00000000E+00  0.00000000E+00  0.00000000E+00
  0.00000000E+00  0.00000000E+00  0.00000000E+00
  0.00000000E+00  0.00000000E+00  0.00000000E+00
  0.00000000E+00  0.00000000E+00  0.00000000E+00
  0.00000000E+00  0.00000000E+00  0.00000000E+00
  0.00000000E+00  0.00000000E+00  0.00000000E+00
  0.00000000E+00  0.00000000E+00  0.00000000E+00
  0.00000000E+00  0.00000000E+00  0.00000000E+00
  0.00000000E+00  0.00000000E+00  0.00000000E+00
  0.00000000E+00  0.00000000E+00  0.00000000E+00
  0.00000000E+00  0.00000000E+00  0.00000000E+00
  0.00000000E+00  0.00000000E+00  0.00000000E+00
  0.00000000E+00  0.00000000E+00  0.00000000E+00
  0.00000000E+00  0.00000000E+00  0.00000000E+00
  0.00000000E+00  0.00000000E+00  0.00000000E+00
  0.00000000E+00  0.00000000E+00  0.00000000E+00
  0.00000000E+00  0.00000000E+00  0.00000000E+00
  0.00000000E+00  0.00000000E+00  0.00000000E+00
  0.00000000E+00  0.00000000E+00  0.00000000E+00
