Ce1 Zr7 O16                             
   1.0000000000000000     
    -3.6078730276803550    3.6078730276803550    0.0000000000000000
    -7.2157460553607100   -3.6078730276803550    5.2414379052533482
     3.6078730276803550    0.0000000000000000    5.2414379052533482
   Ce   Zr   O 
     1     7    16
Direct
  0.1236436699807375  0.6249999930000030  0.8750000069999970
 -0.0063127396622385  0.0019808454302146 -0.0008347986915002
  0.2465029044594763  0.2480191545697854  0.7508347986915000
  0.5043835103158237  0.4972174565164619  0.4981359209987908
  0.7534650458334954  0.7527825434835382  0.2518640790012092
  0.3715473398488365  0.8789413550830704  0.6210873093139565
  0.6274268621354313  0.1249999930000030  0.3750000069999970
  0.8794013996179443  0.3710586309169355  0.1289127046860377
  0.4575028571295958  0.9482687143964703  0.3550224231817302
  0.7012346584417436  0.2001439110842519  0.0972491162215343
  0.9344484266129440  0.4380960285250053  0.8425830633593210
  0.1994209592241290  0.7050644106156306  0.5806335324976778
  0.5769402061759195  0.0807913328963744  0.7192221779901169
  0.8264083012053378  0.3186481249600113  0.4740415751045786
  0.0752487480175997  0.5743507419829761  0.2242568239794638
  0.3200479090218279  0.8257348805955914  0.9806514169095345
  0.9210148490607630  0.9313518730399887  0.2759584468954232
  0.1885093590821701  0.1692086651036254  0.0307778440098851
  0.4151313707078775  0.4242651174044084  0.7693486050904673
  0.6753426640211047  0.6756492560170237  0.5257431980205384
  0.0541294513044540  0.0498560869157479  0.6527509057784676
  0.3007491463443286  0.3017312836035297  0.3949775988182717
  0.5738518353420741  0.5449355873843692  0.1693664895023239
  0.7799613897786208  0.8119039694749944  0.9074169586406808

  0.00000000E+00  0.00000000E+00  0.00000000E+00
  0.00000000E+00  0.00000000E+00  0.00000000E+00
  0.00000000E+00  0.00000000E+00  0.00000000E+00
  0.00000000E+00  0.00000000E+00  0.00000000E+00
  0.00000000E+00  0.00000000E+00  0.00000000E+00
  0.00000000E+00  0.00000000E+00  0.00000000E+00
  0.00000000E+00  0.00000000E+00  0.00000000E+00
  0.00000000E+00  0.00000000E+00  0.00000000E+00
  0.00000000E+00  0.00000000E+00  0.00000000E+00
  0.00000000E+00  0.00000000E+00  0.00000000E+00
  0.00000000E+00  0.00000000E+00  0.00000000E+00
  0.00000000E+00  0.00000000E+00  0.00000000E+00
  0.00000000E+00  0.00000000E+00  0.00000000E+00
  0.00000000E+00  0.00000000E+00  0.00000000E+00
  0.00000000E+00  0.00000000E+00  0.00000000E+00
  0.00000000E+00  0.00000000E+00  0.00000000E+00
  0.00000000E+00  0.00000000E+00  0.00000000E+00
  0.00000000E+00  0.00000000E+00  0.00000000E+00
  0.00000000E+00  0.00000000E+00  0.00000000E+00
  0.00000000E+00  0.00000000E+00  0.00000000E+00
  0.00000000E+00  0.00000000E+00  0.00000000E+00
  0.00000000E+00  0.00000000E+00  0.00000000E+00
  0.00000000E+00  0.00000000E+00  0.00000000E+00
  0.00000000E+00  0.00000000E+00  0.00000000E+00
