Ce1 Zr7 O16                             
   1.0000000000000000     
     3.6073717748788550    3.6073717748788550    0.0000000000000000
    -3.6073717748788550    3.6073717748788550    0.0000000000000000
     0.0000000000000000    0.0000000000000000   10.4814193926041028
   Ce   Zr   O 
     1     7    16
Direct
  0.0000000140000012  0.5000000000000000  0.7500000000000000
 -0.0000000000000000  0.0000000000000000  0.0033808539564732
 -0.0000000000000000  0.0000000000000000  0.4966191460435268
  0.5000000000000000  0.5000000000000000  0.0033808539564732
  0.5000000000000000  0.5000000000000000  0.4966191460435268
  0.5000000140000012  0.0000000000000000  0.2500000000000000
  0.5000000140000012  0.0000000000000000  0.7500000000000000
  0.0000000140000012  0.5000000000000000  0.2500000000000000
  0.2544628868128235  0.2455371271871707  0.1494067189756379
  0.2665177721166652  0.2334822418833289  0.6408030857886123
  0.7455371271871706  0.7544628868128235  0.1494067189756379
  0.7334822418833293  0.7665177721166647  0.6408030857886123
  0.2414443524623396  0.2585556615376544  0.3961725861357172
  0.2410409883748578  0.2589590256251362  0.9028650210357606
  0.7585556615376544  0.7414443524623396  0.3961725861357172
  0.7589590256251360  0.7410409883748581  0.9028650210357606
  0.2414443524623396  0.7414443384623456  0.1038274238642836
  0.2410409883748578  0.7410409743748640  0.5971349889642402
  0.7585556615376544  0.2585556475376604  0.1038274238642836
  0.7589590256251360  0.2589590116251422  0.5971349889642402
  0.2544628868128235  0.7544628728128294  0.3505932910243630
  0.2665177721166652  0.7665177581166707  0.8591969242113885
  0.7455371271871706  0.2455371131871766  0.3505932910243630
  0.7334822418833293  0.2334822278833349  0.8591969242113885

  0.00000000E+00  0.00000000E+00  0.00000000E+00
  0.00000000E+00  0.00000000E+00  0.00000000E+00
  0.00000000E+00  0.00000000E+00  0.00000000E+00
  0.00000000E+00  0.00000000E+00  0.00000000E+00
  0.00000000E+00  0.00000000E+00  0.00000000E+00
  0.00000000E+00  0.00000000E+00  0.00000000E+00
  0.00000000E+00  0.00000000E+00  0.00000000E+00
  0.00000000E+00  0.00000000E+00  0.00000000E+00
  0.00000000E+00  0.00000000E+00  0.00000000E+00
  0.00000000E+00  0.00000000E+00  0.00000000E+00
  0.00000000E+00  0.00000000E+00  0.00000000E+00
  0.00000000E+00  0.00000000E+00  0.00000000E+00
  0.00000000E+00  0.00000000E+00  0.00000000E+00
  0.00000000E+00  0.00000000E+00  0.00000000E+00
  0.00000000E+00  0.00000000E+00  0.00000000E+00
  0.00000000E+00  0.00000000E+00  0.00000000E+00
  0.00000000E+00  0.00000000E+00  0.00000000E+00
  0.00000000E+00  0.00000000E+00  0.00000000E+00
  0.00000000E+00  0.00000000E+00  0.00000000E+00
  0.00000000E+00  0.00000000E+00  0.00000000E+00
  0.00000000E+00  0.00000000E+00  0.00000000E+00
  0.00000000E+00  0.00000000E+00  0.00000000E+00
  0.00000000E+00  0.00000000E+00  0.00000000E+00
  0.00000000E+00  0.00000000E+00  0.00000000E+00
