Ce1 Zr7 O16                             
   1.0000000000000000     
     3.6074375869195991    0.0000000000000000    5.2408053065750106
     0.0000000000000000    7.2148751738391983    0.0000000000000000
    -3.6074375869195991    0.0000000000000000    5.2408053065750106
   Ce   Zr   O 
     1     7    16
Direct
 -0.0015987090033717  0.7500000069999970  0.4984012769966342
  0.0025643081834148  0.0022921041716532 -0.0024151151055882
  0.4975848848944118  0.0022921041716532  0.5025643081834147
  0.0025643081834148  0.4977078958283468 -0.0024151151055882
  0.4975848848944118  0.4977078958283468  0.5025643081834147
  0.5016792814718158  0.2500000069999970  0.0016792674718218
 -0.0019550660695946  0.2500000069999970  0.4980449199304114
  0.5018265715964555  0.7500000069999970  0.0018265575964614
  0.1482815155137283  0.2500000069999970  0.1549455569352885
  0.6549455569352882  0.2500000069999970  0.6482815155137281
  0.1541504796954508  0.7500000069999970  0.1253331862891497
  0.6253331862891498  0.7500000069999970  0.6541504796954510
  0.4150695754650194  0.2500000069999970  0.3875584787603295
  0.8875584787603296  0.2500000069999970  0.9150695754650193
  0.3992306025931852  0.7500000069999970  0.3964945388618629
  0.8964945388618626  0.7500000069999970  0.8992306025931849
  0.3511950562297125  0.0140474158337889  0.8511950422297117
  0.8497758645847566  0.0022791209766064  0.3497758505847558
  0.3511950562297125  0.4859525841662111  0.8511950422297117
  0.8497758645847566  0.4977208790233935  0.3497758505847558
  0.5995104835291105 -0.0037512328273459  0.0995104695291097
  0.1088614785239189  0.0140397146186058  0.6088614645239177
  0.5995104835291105  0.5037512328273460  0.0995104695291097
  0.1088614785239189  0.4859602853813945  0.6088614645239177

  0.00000000E+00  0.00000000E+00  0.00000000E+00
  0.00000000E+00  0.00000000E+00  0.00000000E+00
  0.00000000E+00  0.00000000E+00  0.00000000E+00
  0.00000000E+00  0.00000000E+00  0.00000000E+00
  0.00000000E+00  0.00000000E+00  0.00000000E+00
  0.00000000E+00  0.00000000E+00  0.00000000E+00
  0.00000000E+00  0.00000000E+00  0.00000000E+00
  0.00000000E+00  0.00000000E+00  0.00000000E+00
  0.00000000E+00  0.00000000E+00  0.00000000E+00
  0.00000000E+00  0.00000000E+00  0.00000000E+00
  0.00000000E+00  0.00000000E+00  0.00000000E+00
  0.00000000E+00  0.00000000E+00  0.00000000E+00
  0.00000000E+00  0.00000000E+00  0.00000000E+00
  0.00000000E+00  0.00000000E+00  0.00000000E+00
  0.00000000E+00  0.00000000E+00  0.00000000E+00
  0.00000000E+00  0.00000000E+00  0.00000000E+00
  0.00000000E+00  0.00000000E+00  0.00000000E+00
  0.00000000E+00  0.00000000E+00  0.00000000E+00
  0.00000000E+00  0.00000000E+00  0.00000000E+00
  0.00000000E+00  0.00000000E+00  0.00000000E+00
  0.00000000E+00  0.00000000E+00  0.00000000E+00
  0.00000000E+00  0.00000000E+00  0.00000000E+00
  0.00000000E+00  0.00000000E+00  0.00000000E+00
  0.00000000E+00  0.00000000E+00  0.00000000E+00
