Ce1 Zr7 O16                             
   1.0000000000000000     
     0.0000000000000000    7.2144508480526248    0.0000000000000000
    -7.2144508480526248    0.0000000000000000    0.0000000000000000
    -3.6072254240263124    3.6072254240263124    5.2404970810298117
   Ce   Zr   O 
     1     7    16
Direct
  0.0000000069999970  0.9999999930000030  0.5000000000000000
  0.0023997312238807 -0.0023997312238807 -0.0000000000000000
  0.4976002687761191  0.5023997312238805 -0.0000000000000000
  0.4976002687761191 -0.0023997312238807 -0.0000000000000000
  0.0023997312238807  0.5023997312238805 -0.0000000000000000
 -0.0034969325248824  0.4965030534751236  0.5069938790497588
  0.5034969465248763  0.0034969325248823  0.4930061209502412
  0.5000000069999970  0.4999999930000030  0.5000000000000000
  0.1100290285344016  0.8427183703969430  0.2799419569311908
  0.6001880323491783  0.3440555021112381  0.2996239493016375
  0.6001880323491783  0.8563205485871244  0.2996239493016375
  0.1100290285344016  0.3773396726718664  0.2799419569311908
  0.8505299812643854  0.6030251642678668  0.7989400514712232
  0.3509809232051800  0.1199628963784995  0.7980381675896341
  0.3509809232051800  0.5819989360318664  0.7980381675896341
  0.8505299812643854  0.0980347842609101  0.7989400514712232
  0.8800370936214996  0.6490190667948196  0.2019618524103673
  0.3969748257321324  0.1494700087356137  0.2010599685287784
  0.4180010539681329  0.6490190667948196  0.2019618524103673
  0.9019652057390892  0.1494700087356137  0.2010599685287784
  0.6559444878887613  0.3998119576508209  0.7003760706983642
  0.1572816196030564  0.8899709614655975  0.7200580630688108
  0.1436794414128746  0.3998119576508209  0.7003760706983642
  0.6226603173281328  0.8899709614655975  0.7200580630688108

  0.00000000E+00  0.00000000E+00  0.00000000E+00
  0.00000000E+00  0.00000000E+00  0.00000000E+00
  0.00000000E+00  0.00000000E+00  0.00000000E+00
  0.00000000E+00  0.00000000E+00  0.00000000E+00
  0.00000000E+00  0.00000000E+00  0.00000000E+00
  0.00000000E+00  0.00000000E+00  0.00000000E+00
  0.00000000E+00  0.00000000E+00  0.00000000E+00
  0.00000000E+00  0.00000000E+00  0.00000000E+00
  0.00000000E+00  0.00000000E+00  0.00000000E+00
  0.00000000E+00  0.00000000E+00  0.00000000E+00
  0.00000000E+00  0.00000000E+00  0.00000000E+00
  0.00000000E+00  0.00000000E+00  0.00000000E+00
  0.00000000E+00  0.00000000E+00  0.00000000E+00
  0.00000000E+00  0.00000000E+00  0.00000000E+00
  0.00000000E+00  0.00000000E+00  0.00000000E+00
  0.00000000E+00  0.00000000E+00  0.00000000E+00
  0.00000000E+00  0.00000000E+00  0.00000000E+00
  0.00000000E+00  0.00000000E+00  0.00000000E+00
  0.00000000E+00  0.00000000E+00  0.00000000E+00
  0.00000000E+00  0.00000000E+00  0.00000000E+00
  0.00000000E+00  0.00000000E+00  0.00000000E+00
  0.00000000E+00  0.00000000E+00  0.00000000E+00
  0.00000000E+00  0.00000000E+00  0.00000000E+00
  0.00000000E+00  0.00000000E+00  0.00000000E+00
