Ce1 Zr7 O16                             
   1.0000000000000000     
     0.0000000000000000    0.0000000000000000    5.2403038951870915
     7.2141848943185991    0.0000000000000000    0.0000000000000000
     0.0000000000000000    7.2141848943185991    0.0000000000000000
   Ce   Zr   O 
     1     7    16
Direct
  0.5000000000000000  0.7500000069999970  0.7500000069999970
  0.0000000000000000  0.0024416386254117  0.0024416386254117
  0.0000000000000000  0.0024416386254117  0.4975583613745882
  0.0000000000000000  0.4975583613745882  0.0024416386254117
  0.0000000000000000  0.4975583613745882  0.4975583613745882
  0.5000000000000000  0.2500000069999970  0.2500000069999970
  0.5015277171052348  0.2500000069999970  0.7500000069999970
  0.4984722828947651  0.7500000069999970  0.2500000069999970
  0.3014663796141063 -0.0057065461723286  0.2500000069999970
  0.2786033742284402  0.0164287116988993  0.7500000069999970
  0.3014663796141063  0.5057065461723285  0.2500000069999970
  0.2786033742284402  0.4835712883011007  0.7500000069999970
  0.8009769497061979  0.0182353205807602  0.2500000069999970
  0.7956356587618481 -0.0011045600867668  0.7500000069999970
  0.8009769497061979  0.4817646794192399  0.2500000069999970
  0.7956356587618481  0.5011045600867668  0.7500000069999970
  0.1990230702938038  0.2500000069999970  0.0182353205807602
  0.1990230702938038  0.2500000069999970  0.4817646794192399
  0.2043643612381536  0.7500000069999970 -0.0011045600867668
  0.2043643612381536  0.7500000069999970  0.5011045600867668
  0.6985336403858955  0.2500000069999970 -0.0057065461723286
  0.6985336403858955  0.2500000069999970  0.5057065461723285
  0.7213966457715617  0.7500000069999970  0.0164287116988993
  0.7213966457715617  0.7500000069999970  0.4835712883011007

  0.00000000E+00  0.00000000E+00  0.00000000E+00
  0.00000000E+00  0.00000000E+00  0.00000000E+00
  0.00000000E+00  0.00000000E+00  0.00000000E+00
  0.00000000E+00  0.00000000E+00  0.00000000E+00
  0.00000000E+00  0.00000000E+00  0.00000000E+00
  0.00000000E+00  0.00000000E+00  0.00000000E+00
  0.00000000E+00  0.00000000E+00  0.00000000E+00
  0.00000000E+00  0.00000000E+00  0.00000000E+00
  0.00000000E+00  0.00000000E+00  0.00000000E+00
  0.00000000E+00  0.00000000E+00  0.00000000E+00
  0.00000000E+00  0.00000000E+00  0.00000000E+00
  0.00000000E+00  0.00000000E+00  0.00000000E+00
  0.00000000E+00  0.00000000E+00  0.00000000E+00
  0.00000000E+00  0.00000000E+00  0.00000000E+00
  0.00000000E+00  0.00000000E+00  0.00000000E+00
  0.00000000E+00  0.00000000E+00  0.00000000E+00
  0.00000000E+00  0.00000000E+00  0.00000000E+00
  0.00000000E+00  0.00000000E+00  0.00000000E+00
  0.00000000E+00  0.00000000E+00  0.00000000E+00
  0.00000000E+00  0.00000000E+00  0.00000000E+00
  0.00000000E+00  0.00000000E+00  0.00000000E+00
  0.00000000E+00  0.00000000E+00  0.00000000E+00
  0.00000000E+00  0.00000000E+00  0.00000000E+00
  0.00000000E+00  0.00000000E+00  0.00000000E+00
