Ce1 Zr7 O16                             
   1.0000000000000000     
     3.6084653503288995    3.6084653503288995    0.0000000000000000
    -7.2169307006577990    7.2169307006577990    0.0000000000000000
     0.0000000000000000    0.0000000000000000    5.2422984184583319
   Ce   Zr   O 
     1     7    16
Direct
  0.0000000140000012  0.7500000000000000  0.5000000000000000
 -0.0000000000000000  0.0022279984992858  0.0000000000000000
  0.5000000000000000  0.2500000000000000  0.0000000000000000
  0.0000000000000000  0.4977720015007142  0.0000000000000000
  0.5000000000000000  0.7500000000000000  0.0000000000000000
  0.5000000140000012  0.0028289359608037  0.5000000000000000
  0.0000000140000012  0.2500000000000000  0.5000000000000000
  0.5000000140000012  0.4971710640391963  0.5000000000000000
  0.2504172862305067  0.1223944276020683  0.3010062343146192
  0.7495827277694873  0.3776055783979250  0.3010062343146192
  0.2691481394306487  0.6172301322827582  0.2811299311591637
  0.7308518745693454  0.8827698737172351  0.2811299311591637
  0.2429717170511501  0.1315758580212823  0.8005518456108806
  0.7570282969488439  0.3684241479787111  0.8005518456108806
  0.2411001631577273  0.6263363598866356  0.7977413641942582
  0.7588998508422665  0.8736636461133578  0.7977413641942582
  0.2411001631577273  0.8736636401133644  0.2022586558057434
  0.7570282969488439  0.1315758520212889  0.1994481743891211
  0.2429717170511501  0.3684241419787177  0.1994481743891211
  0.7588998508422665  0.6263363538866422  0.2022586558057434
  0.2691481394306487  0.8827698677172418  0.7188700888408379
  0.7495827277694873  0.1223944216020749  0.6989937856853827
  0.2504172862305067  0.3776055723979316  0.6989937856853827
  0.7308518745693454  0.6172301262827649  0.7188700888408379

  0.00000000E+00  0.00000000E+00  0.00000000E+00
  0.00000000E+00  0.00000000E+00  0.00000000E+00
  0.00000000E+00  0.00000000E+00  0.00000000E+00
  0.00000000E+00  0.00000000E+00  0.00000000E+00
  0.00000000E+00  0.00000000E+00  0.00000000E+00
  0.00000000E+00  0.00000000E+00  0.00000000E+00
  0.00000000E+00  0.00000000E+00  0.00000000E+00
  0.00000000E+00  0.00000000E+00  0.00000000E+00
  0.00000000E+00  0.00000000E+00  0.00000000E+00
  0.00000000E+00  0.00000000E+00  0.00000000E+00
  0.00000000E+00  0.00000000E+00  0.00000000E+00
  0.00000000E+00  0.00000000E+00  0.00000000E+00
  0.00000000E+00  0.00000000E+00  0.00000000E+00
  0.00000000E+00  0.00000000E+00  0.00000000E+00
  0.00000000E+00  0.00000000E+00  0.00000000E+00
  0.00000000E+00  0.00000000E+00  0.00000000E+00
  0.00000000E+00  0.00000000E+00  0.00000000E+00
  0.00000000E+00  0.00000000E+00  0.00000000E+00
  0.00000000E+00  0.00000000E+00  0.00000000E+00
  0.00000000E+00  0.00000000E+00  0.00000000E+00
  0.00000000E+00  0.00000000E+00  0.00000000E+00
  0.00000000E+00  0.00000000E+00  0.00000000E+00
  0.00000000E+00  0.00000000E+00  0.00000000E+00
  0.00000000E+00  0.00000000E+00  0.00000000E+00
