Ce1 Zr7 O16                             
   1.0000000000000000     
     3.6026521984805386    0.0000000000000000    0.0000000000000000
     0.0000000000000000    3.6026521984805386    0.0000000000000000
     0.0000000000000000    0.0000000000000000   20.9354128015983854
   Ce   Zr   O 
     1     7    16
Direct
  0.5000000140000012  0.5000000140000012  0.8750000000000000
 -0.0000000000000000  0.0000000000000000  0.0045315692415889
  0.0000000000000000 -0.0000000000000000  0.2513398895459203
  0.0000000000000000 -0.0000000000000000  0.4986601104540797
 -0.0000000000000000 -0.0000000000000000  0.7454684307584112
  0.5000000140000012  0.5000000140000012  0.1277829027735443
  0.5000000140000012  0.5000000140000012  0.3750000000000000
  0.5000000140000012  0.5000000140000012  0.6222170972264557
  0.0000000000000000  0.5000000140000012  0.0768494913613792
 -0.0000000000000000  0.5000000140000012  0.3247470379679287
  0.0000000000000000  0.5000000140000012  0.5716546532908111
  0.0000000000000000  0.5000000140000012  0.8155695051905000
 -0.0000000000000000  0.5000000140000012  0.2008977099393325
  0.0000000000000000  0.5000000140000012  0.4483766718736548
 -0.0000000000000000  0.5000000140000012  0.6942728182215137
 -0.0000000000000000  0.5000000140000012  0.9528906086254688
  0.5000000140000012 -0.0000000000000000  0.0557271857784865
  0.5000000140000012 -0.0000000000000000  0.3016233321263456
  0.5000000140000012  0.0000000000000000  0.5491022940606681
  0.5000000140000012 -0.0000000000000000  0.7971093953745315
  0.5000000140000012  0.0000000000000000  0.1783453507091893
  0.5000000140000012  0.0000000000000000  0.4252529660320716
  0.5000000140000012 -0.0000000000000000  0.6731505126386209
  0.5000000140000012  0.0000000000000000  0.9344304988095004

  0.00000000E+00  0.00000000E+00  0.00000000E+00
  0.00000000E+00  0.00000000E+00  0.00000000E+00
  0.00000000E+00  0.00000000E+00  0.00000000E+00
  0.00000000E+00  0.00000000E+00  0.00000000E+00
  0.00000000E+00  0.00000000E+00  0.00000000E+00
  0.00000000E+00  0.00000000E+00  0.00000000E+00
  0.00000000E+00  0.00000000E+00  0.00000000E+00
  0.00000000E+00  0.00000000E+00  0.00000000E+00
  0.00000000E+00  0.00000000E+00  0.00000000E+00
  0.00000000E+00  0.00000000E+00  0.00000000E+00
  0.00000000E+00  0.00000000E+00  0.00000000E+00
  0.00000000E+00  0.00000000E+00  0.00000000E+00
  0.00000000E+00  0.00000000E+00  0.00000000E+00
  0.00000000E+00  0.00000000E+00  0.00000000E+00
  0.00000000E+00  0.00000000E+00  0.00000000E+00
  0.00000000E+00  0.00000000E+00  0.00000000E+00
  0.00000000E+00  0.00000000E+00  0.00000000E+00
  0.00000000E+00  0.00000000E+00  0.00000000E+00
  0.00000000E+00  0.00000000E+00  0.00000000E+00
  0.00000000E+00  0.00000000E+00  0.00000000E+00
  0.00000000E+00  0.00000000E+00  0.00000000E+00
  0.00000000E+00  0.00000000E+00  0.00000000E+00
  0.00000000E+00  0.00000000E+00  0.00000000E+00
  0.00000000E+00  0.00000000E+00  0.00000000E+00
