Ce1 Zr7 O16                             
   1.0000000000000000     
     3.6074796897882013    3.6074796897882013    0.0000000000000000
    -3.6074796897882013    3.6074796897882013    5.2408664726885963
     3.6074796897882013   -3.6074796897882013    5.2408664726885963
   Ce   Zr   O 
     1     7    16
Direct
  0.0000000140000012  0.5000000000000000  0.0000000000000000
  0.0068696881029442 -0.0000000000000000  0.0000000000000000
 -0.0068696881029442  0.5000000000000000  0.5000000000000000
  0.5000000000000000  0.2470000004599986  0.7470000004599984
  0.5000000000000000  0.7529999995400016  0.2529999995400015
  0.5000000140000012  0.2458529378790925  0.2541470621209075
  0.5000000140000012  0.7541470621209074  0.7458529378790926
  0.0000000140000012 -0.0000000000000000  0.5000000000000000
  0.2660950411616346  0.2559194839731165  0.0250828239116164
  0.2568338366671422  0.7721521345180654  0.5259182374817044
  0.7339049728383598  0.5250828309116135  0.7559194769731195
  0.7431661773328520  0.0259182444817015  0.2721521275180683
  0.2432117656207935  0.5290069031923661  0.2740920381702083
  0.2358649014147062  0.0296993895233671  0.7639577236554408
  0.7567882483792001  0.7740920451702051  0.0290068961923688
  0.7641351125852875  0.2639577306554379  0.5296993825233700
  0.2358649014147062  0.9703006194766302  0.2360422853445563
  0.2432117656207935  0.4709931058076314  0.7259079708297891
  0.7567882483792001  0.2259079638297918  0.9709931128076281
  0.7641351125852875  0.7360422783445594  0.4703006264766272
  0.2568338366671422  0.2278478744819318  0.4740817715182926
  0.2660950411616346  0.7440805250268807  0.9749171850883808
  0.7339049728383598  0.4749171780883836  0.2440805320268778
  0.7431661773328520  0.9740817645182958  0.7278478814819288

  0.00000000E+00  0.00000000E+00  0.00000000E+00
  0.00000000E+00  0.00000000E+00  0.00000000E+00
  0.00000000E+00  0.00000000E+00  0.00000000E+00
  0.00000000E+00  0.00000000E+00  0.00000000E+00
  0.00000000E+00  0.00000000E+00  0.00000000E+00
  0.00000000E+00  0.00000000E+00  0.00000000E+00
  0.00000000E+00  0.00000000E+00  0.00000000E+00
  0.00000000E+00  0.00000000E+00  0.00000000E+00
  0.00000000E+00  0.00000000E+00  0.00000000E+00
  0.00000000E+00  0.00000000E+00  0.00000000E+00
  0.00000000E+00  0.00000000E+00  0.00000000E+00
  0.00000000E+00  0.00000000E+00  0.00000000E+00
  0.00000000E+00  0.00000000E+00  0.00000000E+00
  0.00000000E+00  0.00000000E+00  0.00000000E+00
  0.00000000E+00  0.00000000E+00  0.00000000E+00
  0.00000000E+00  0.00000000E+00  0.00000000E+00
  0.00000000E+00  0.00000000E+00  0.00000000E+00
  0.00000000E+00  0.00000000E+00  0.00000000E+00
  0.00000000E+00  0.00000000E+00  0.00000000E+00
  0.00000000E+00  0.00000000E+00  0.00000000E+00
  0.00000000E+00  0.00000000E+00  0.00000000E+00
  0.00000000E+00  0.00000000E+00  0.00000000E+00
  0.00000000E+00  0.00000000E+00  0.00000000E+00
  0.00000000E+00  0.00000000E+00  0.00000000E+00
