Ce1 Zr7 O16                             
   1.0000000000000000     
     3.6060091224741426    0.0000000000000000    0.0000000000000000
     0.0000000000000000   14.4240364898965705    0.0000000000000000
     0.0000000000000000    0.0000000000000000    5.2387300651146624
   Ce   Zr   O 
     1     7    16
Direct
  0.5000000140000012  0.8750000029999967  0.4934261860645145
  0.0000000000000000  0.0034172544860435 -0.0038518228848825
 -0.0000000000000000  0.2514237184342546  0.0035188342177831
 -0.0000000000000000  0.4985762815657455  0.0035188342177831
  0.0000000000000000  0.7465827455139566 -0.0038518228848825
  0.5000000140000012  0.1286109807679196  0.5014190281403951
  0.5000000140000012  0.3750000029999967  0.5018918028831505
  0.5000000140000012  0.6213890252320738  0.5014190281403951
 -0.0000000000000000  0.1275295355753635  0.3027422722876748
 -0.0000000000000000  0.3750000029999967  0.3041665527179674
  0.0000000000000000  0.6224704704246303  0.3027422722876748
 -0.0000000000000000  0.8750000029999967  0.2541310725491713
 -0.0000000000000000  0.1286612528768575  0.8011357954211896
 -0.0000000000000000  0.3750000029999967  0.8034837077543506
  0.0000000000000000  0.6213387531231361  0.8011357954211896
 -0.0000000000000000  0.8750000029999967  0.7851186915408218
  0.5000000140000012  0.0069433193464260  0.2034624694128376
  0.5000000140000012  0.2513429528564205  0.2018532183571748
  0.5000000140000012  0.4986570471435795  0.2018532183571748
  0.5000000140000012  0.7430566806535738  0.2034624694128376
  0.5000000140000012  0.0070320266567019  0.7159208148393029
  0.5000000140000012  0.2518918714358895  0.7026904634535439
  0.5000000140000012  0.4981081285641105  0.7026904634535439
  0.5000000140000012  0.7429679733432982  0.7159208148393029

  0.00000000E+00  0.00000000E+00  0.00000000E+00
  0.00000000E+00  0.00000000E+00  0.00000000E+00
  0.00000000E+00  0.00000000E+00  0.00000000E+00
  0.00000000E+00  0.00000000E+00  0.00000000E+00
  0.00000000E+00  0.00000000E+00  0.00000000E+00
  0.00000000E+00  0.00000000E+00  0.00000000E+00
  0.00000000E+00  0.00000000E+00  0.00000000E+00
  0.00000000E+00  0.00000000E+00  0.00000000E+00
  0.00000000E+00  0.00000000E+00  0.00000000E+00
  0.00000000E+00  0.00000000E+00  0.00000000E+00
  0.00000000E+00  0.00000000E+00  0.00000000E+00
  0.00000000E+00  0.00000000E+00  0.00000000E+00
  0.00000000E+00  0.00000000E+00  0.00000000E+00
  0.00000000E+00  0.00000000E+00  0.00000000E+00
  0.00000000E+00  0.00000000E+00  0.00000000E+00
  0.00000000E+00  0.00000000E+00  0.00000000E+00
  0.00000000E+00  0.00000000E+00  0.00000000E+00
  0.00000000E+00  0.00000000E+00  0.00000000E+00
  0.00000000E+00  0.00000000E+00  0.00000000E+00
  0.00000000E+00  0.00000000E+00  0.00000000E+00
  0.00000000E+00  0.00000000E+00  0.00000000E+00
  0.00000000E+00  0.00000000E+00  0.00000000E+00
  0.00000000E+00  0.00000000E+00  0.00000000E+00
  0.00000000E+00  0.00000000E+00  0.00000000E+00
