Ce1 Zr7 O16                             
   1.0000000000000000     
    -3.6077903876320283    3.6077903876320283    0.0000000000000000
    -3.6077903876320283   -3.6077903876320283    0.0000000000000000
    -3.6077903876320283    0.0000000000000000   10.4826356952484918
   Ce   Zr   O 
     1     7    16
Direct
  0.1250000000000000  0.6249999859999988  0.7500000000000000
 -0.0017570285692806 -0.0017570285692806  0.0035140571385613
  0.7517570285692809  0.7517570285692809  0.4964859428614388
  0.4982429714307193  0.4982429714307193  0.0035140571385613
  0.2517570285692807  0.2517570285692807  0.4964859428614388
  0.8759338899549436  0.3759338759549423  0.2481322200901132
  0.6250000000000000  0.1249999859999988  0.7500000000000000
  0.3740661100450565  0.8740660960450553  0.2518677799098869
  0.1772167910200858  0.6772167770200845  0.1498152336364716
  0.9130745196285602  0.4130745056285591  0.6412058213040119
  0.6729679903434406  0.1729679763434393  0.1498152336364716
  0.4457196740674254  0.9457196600674243  0.6412058213040119
  0.0556567874830555  0.5556567734830544  0.3962799292286372
  0.8074221307619852  0.3074221167619841  0.9033123397509190
  0.5480632982883049  0.0480632842883038  0.3962799292286372
  0.2892655444870937  0.7892655304870928  0.9033123397509190
  0.7019366977116948  0.6943432085169441  0.1037200807713635
  0.4425778652380145  0.4607344515129060  0.5966876702490819
  0.1943432085169442  0.2019366977116948  0.1037200807713635
  0.9607344515129057  0.9425778652380145  0.5966876702490819
  0.5770320056565591  0.5727832049799140  0.3501847763635293
  0.3369254763714394  0.3042803219325743  0.8587941886959889
  0.0727832049799139  0.0770320056565592  0.3501847763635293
  0.8042803219325743  0.8369254763714394  0.8587941886959889

 -0.00000000E+00  0.00000000E+00  0.00000000E+00
 -0.00000000E+00  0.00000000E+00  0.00000000E+00
 -0.00000000E+00  0.00000000E+00  0.00000000E+00
 -0.00000000E+00  0.00000000E+00  0.00000000E+00
 -0.00000000E+00  0.00000000E+00  0.00000000E+00
 -0.00000000E+00  0.00000000E+00  0.00000000E+00
 -0.00000000E+00  0.00000000E+00  0.00000000E+00
 -0.00000000E+00  0.00000000E+00  0.00000000E+00
 -0.00000000E+00  0.00000000E+00  0.00000000E+00
 -0.00000000E+00  0.00000000E+00  0.00000000E+00
 -0.00000000E+00  0.00000000E+00  0.00000000E+00
 -0.00000000E+00  0.00000000E+00  0.00000000E+00
 -0.00000000E+00  0.00000000E+00  0.00000000E+00
 -0.00000000E+00  0.00000000E+00  0.00000000E+00
 -0.00000000E+00  0.00000000E+00  0.00000000E+00
 -0.00000000E+00  0.00000000E+00  0.00000000E+00
 -0.00000000E+00  0.00000000E+00  0.00000000E+00
 -0.00000000E+00  0.00000000E+00  0.00000000E+00
 -0.00000000E+00  0.00000000E+00  0.00000000E+00
 -0.00000000E+00  0.00000000E+00  0.00000000E+00
 -0.00000000E+00  0.00000000E+00  0.00000000E+00
 -0.00000000E+00  0.00000000E+00  0.00000000E+00
 -0.00000000E+00  0.00000000E+00  0.00000000E+00
 -0.00000000E+00  0.00000000E+00  0.00000000E+00
