Ce1 Zr7 O16                             
   1.0000000000000000     
     0.0000000000000000    0.0000000000000000    5.2410156640435748
    -3.6075823836434617    7.2151647672869235    0.0000000000000000
    -7.2151647672869235    0.0000000000000000    0.0000000000000000
   Ce   Zr   O 
     1     7    16
Direct
  0.5005177679861311  0.7500000069999970  0.8749999899999992
  0.0001834611623909  0.0023136536130554 -0.0003308490053078
  0.0001834611623909  0.4976863463869446  0.7503308490053076
  0.0001834611623909  0.0023136536130554  0.4980171953922524
  0.0001834611623909  0.4976863463869446  0.2519828046077476
  0.4999968573155088  0.2526419634407183  0.6236790117796387
  0.5010444655766978  0.7500000069999970  0.3749999899999992
  0.4999968573155088  0.2473580505592758  0.1263209682203598
  0.3034132775562465  0.2500000069999970  0.8749999970000033
  0.2807178780256765  0.7500000069999970  0.6105442645529922
  0.3034132775562465  0.2500000069999970  0.3749999970000033
  0.2807178780256765  0.7500000069999970  0.1394557294470145
  0.8011392730126506  0.2500000069999970  0.8749999970000033
  0.7968470779294818  0.7500000069999970  0.6208446413844494
  0.8011392730126506  0.2500000069999970  0.3749999970000033
  0.7968470779294818  0.7500000069999970  0.1291553526155572
  0.2039675215238050  0.0039350565758497  0.7480324647120783
  0.1968650726784321  0.4870845139685728  0.5064577360157162
  0.1968650726784321  0.0129154860314271  0.2435422499842894
  0.2039675215238050  0.4960649434241503  0.0019675212879278
  0.7174716862951113  0.0106721336710356  0.7446639261644851
  0.6984333965568974  0.5009617164640039  0.4995191347680011
  0.6984333965568974 -0.0009617164640038  0.2504808512320049
  0.7174716862951113  0.4893278663289645  0.0053360598355207

  0.00000000E+00  0.00000000E+00  0.00000000E+00
  0.00000000E+00  0.00000000E+00  0.00000000E+00
  0.00000000E+00  0.00000000E+00  0.00000000E+00
  0.00000000E+00  0.00000000E+00  0.00000000E+00
  0.00000000E+00  0.00000000E+00  0.00000000E+00
  0.00000000E+00  0.00000000E+00  0.00000000E+00
  0.00000000E+00  0.00000000E+00  0.00000000E+00
  0.00000000E+00  0.00000000E+00  0.00000000E+00
  0.00000000E+00  0.00000000E+00  0.00000000E+00
  0.00000000E+00  0.00000000E+00  0.00000000E+00
  0.00000000E+00  0.00000000E+00  0.00000000E+00
  0.00000000E+00  0.00000000E+00  0.00000000E+00
  0.00000000E+00  0.00000000E+00  0.00000000E+00
  0.00000000E+00  0.00000000E+00  0.00000000E+00
  0.00000000E+00  0.00000000E+00  0.00000000E+00
  0.00000000E+00  0.00000000E+00  0.00000000E+00
  0.00000000E+00  0.00000000E+00  0.00000000E+00
  0.00000000E+00  0.00000000E+00  0.00000000E+00
  0.00000000E+00  0.00000000E+00  0.00000000E+00
  0.00000000E+00  0.00000000E+00  0.00000000E+00
  0.00000000E+00  0.00000000E+00  0.00000000E+00
  0.00000000E+00  0.00000000E+00  0.00000000E+00
  0.00000000E+00  0.00000000E+00  0.00000000E+00
  0.00000000E+00  0.00000000E+00  0.00000000E+00
