BCC Zr,Y,O str #: 1
1.000
  3.599999900  0.000000000  0.000000000
  0.000000000  3.599999900  0.000000000
  0.000000000  0.000000000  20.920000000
  Ce  Zr  O
  1  7  16
Direct
  0.500000014   0.500000014   0.875000000
  0.000000000   0.000000000   0.000000000
  0.000000000   0.000000000   0.250000000
  0.000000000   0.000000000   0.500000000
  0.000000000   0.000000000   0.750000000
  0.500000014   0.500000014   0.125000000
  0.500000014   0.500000014   0.375000000
  0.500000014   0.500000014   0.625000000
  0.000000000   0.500000014   0.075443752
  0.000000000   0.500000014   0.325443752
  0.000000000   0.500000014   0.575443752
  0.000000000   0.500000014   0.825443752
  0.000000000   0.500000014   0.200443752
  0.000000000   0.500000014   0.450443752
  0.000000000   0.500000014   0.700443752
  0.000000000   0.500000014   0.950443752
  0.500000014   0.000000000   0.049556252
  0.500000014   0.000000000   0.299556252
  0.500000014   0.000000000   0.549556252
  0.500000014   0.000000000   0.799556252
  0.500000014   0.000000000   0.174556252
  0.500000014   0.000000000   0.424556252
  0.500000014   0.000000000   0.674556252
  0.500000014   0.000000000   0.924556252
