BCC Zr,Y,O str #: 4
1.000
  3.599999900  0.000000000  0.000000000
  0.000000000 -3.599999900  10.460000000
  0.000000000 -7.199999800  0.000000000
  Ce  Zr  O
  1  7  16
Direct
  0.500000014   0.750000000   0.874999993
  0.000000000   0.000000000   0.000000000
  0.000000000   0.500000000   0.750000000
  0.000000000   0.000000000   0.500000000
  0.000000000   0.500000000   0.250000000
  0.500000014   0.250000000   0.624999993
  0.500000014   0.750000000   0.374999993
  0.500000014   0.250000000   0.124999993
  0.000000000   0.150887505   0.674556241
  0.000000000   0.650887505   0.424556241
  0.000000000   0.150887505   0.174556241
  0.000000000   0.650887505   0.924556241
  0.000000000   0.400887505   0.549556241
  0.000000000   0.900887505   0.299556241
  0.000000000   0.400887505   0.049556241
  0.000000000   0.900887505   0.799556241
  0.500000014   0.099112505   0.950443748
  0.500000014   0.599112505   0.700443748
  0.500000014   0.099112505   0.450443748
  0.500000014   0.599112505   0.200443748
  0.500000014   0.349112505   0.825443748
  0.500000014   0.849112505   0.575443748
  0.500000014   0.349112505   0.325443748
  0.500000014   0.849112505   0.075443748
