BCC Zr,Y,O str #: 3
1.000
  3.599999900  0.000000000  0.000000000
  0.000000000  3.599999900  5.230000000
  0.000000000 -10.799999700  5.230000000
  Ce  Zr  O
  1  7  16
Direct
  0.500000014   0.750000003   0.749999997
  0.000000000   0.000000000   0.000000000
  0.000000000   0.750000000   0.250000000
  0.000000000   0.500000000   0.500000000
  0.000000000   0.250000000   0.750000000
  0.500000014   0.500000003  -0.000000003
  0.500000014   0.250000003   0.249999997
  0.500000014   0.000000003   0.499999997
  0.000000000   0.351331261   0.950443749
  0.000000000   0.101331261   0.200443749
  0.000000000   0.851331261   0.450443749
  0.000000000   0.601331261   0.700443749
  0.000000000   0.726331261   0.075443749
  0.000000000   0.476331261   0.325443749
  0.000000000   0.226331261   0.575443749
  0.000000000   0.976331261   0.825443749
  0.500000014   0.148668757   0.049556252
  0.500000014   0.898668757   0.299556252
  0.500000014   0.648668757   0.549556252
  0.500000014   0.398668757   0.799556252
  0.500000014   0.523668757   0.174556252
  0.500000014   0.273668757   0.424556252
  0.500000014   0.023668757   0.674556252
  0.500000014   0.773668757   0.924556252
