BCC Zr,Y,O str #: 11
1.000
  3.599999900  3.599999900  0.000000000
 -3.599999900  3.599999900  5.230000000
  3.599999900 -3.599999900  5.230000000
  Ce  Zr  O
  1  7  16
Direct
  0.000000014   0.500000000   0.000000000
  0.000000000   0.000000000   0.000000000
 -0.000000000   0.500000000   0.500000000
  0.500000000   0.250000000   0.750000000
  0.500000000   0.750000000   0.250000000
  0.500000014   0.250000000   0.250000000
  0.500000014   0.750000000   0.750000000
  0.000000014  -0.000000000   0.500000000
  0.250000007   0.275887508   0.025887501
  0.250000007   0.775887508   0.525887501
  0.750000007   0.525887508   0.775887501
  0.750000007   0.025887508   0.275887501
  0.250000007   0.525887508   0.275887501
  0.250000007   0.025887508   0.775887501
  0.750000007   0.775887508   0.025887501
  0.750000007   0.275887508   0.525887501
  0.250000007   0.974112501   0.224112508
  0.250000007   0.474112501   0.724112508
  0.750000007   0.224112501   0.974112508
  0.750000007   0.724112501   0.474112508
  0.250000007   0.224112501   0.474112508
  0.250000007   0.724112501   0.974112508
  0.750000007   0.474112501   0.224112508
  0.750000007   0.974112501   0.724112508
