BCC Zr,Y,O str #: 14
1.000
  3.599999900  0.000000000  5.230000000
  0.000000000  7.199999800  0.000000000
 -3.599999900  0.000000000  5.230000000
  Ce  Zr  O
  1  7  16
Direct
  0.000000007   0.750000007   0.499999993
  0.000000000   0.000000000   0.000000000
  0.500000000   0.000000000   0.500000000
  0.000000000   0.500000000   0.000000000
  0.500000000   0.500000000   0.500000000
  0.500000007   0.250000007  -0.000000007
  0.000000007   0.250000007   0.499999993
  0.500000007   0.750000007  -0.000000007
  0.150887505   0.250000007   0.150887505
  0.650887505   0.250000007   0.650887505
  0.150887505   0.750000007   0.150887505
  0.650887505   0.750000007   0.650887505
  0.400887505   0.250000007   0.400887505
  0.900887505   0.250000007   0.900887505
  0.400887505   0.750000007   0.400887505
  0.900887505   0.750000007   0.900887505
  0.349112512   0.000000000   0.849112498
  0.849112512   0.000000000   0.349112498
  0.349112512   0.500000000   0.849112498
  0.849112512   0.500000000   0.349112498
  0.599112512   0.000000000   0.099112498
  0.099112512   0.000000000   0.599112498
  0.599112512   0.500000000   0.099112498
  0.099112512   0.500000000   0.599112498
