BCC Zr,Y,O str #: 16
1.000
  0.000000000  7.199999800  0.000000000
 -7.199999800  0.000000000  0.000000000
 -3.599999900  3.599999900  5.230000000
  Ce  Zr  O
  1  7  16
Direct
  0.000000007  -0.000000007   0.500000000
  0.000000000   0.000000000   0.000000000
  0.500000000   0.500000000   0.000000000
  0.500000000   0.000000000   0.000000000
 -0.000000000   0.500000000   0.000000000
  0.000000007   0.499999993   0.500000000
  0.500000007  -0.000000007   0.500000000
  0.500000007   0.499999993   0.500000000
  0.099112502   0.849112495   0.301775010
  0.599112502   0.349112495   0.301775010
  0.599112502   0.849112495   0.301775010
  0.099112502   0.349112495   0.301775010
  0.849112502   0.599112495   0.801775010
  0.349112502   0.099112495   0.801775010
  0.349112502   0.599112495   0.801775010
  0.849112502   0.099112495   0.801775010
  0.900887495   0.650887488   0.198225010
  0.400887495   0.150887488   0.198225010
  0.400887495   0.650887488   0.198225010
  0.900887495   0.150887488   0.198225010
  0.650887495   0.400887488   0.698225010
  0.150887495   0.900887488   0.698225010
  0.150887495   0.400887488   0.698225010
  0.650887495   0.900887488   0.698225010
