BCC Zr,Y,O str #: 8
1.000
 -3.599999900  3.599999900  0.000000000
 -3.599999900 -3.599999900  0.000000000
 -3.599999900  0.000000000  10.460000000
  Ce  Zr  O
  1  7  16
Direct
  0.125000000   0.624999986   0.750000000
  0.000000000   0.000000000   0.000000000
  0.750000000   0.750000000   0.500000000
  0.500000000   0.500000000   0.000000000
  0.250000000   0.250000000   0.500000000
  0.875000000   0.374999986   0.250000000
  0.625000000   0.124999986   0.750000000
  0.375000000   0.874999986   0.250000000
  0.174556255   0.674556241   0.150887505
  0.924556255   0.424556241   0.650887505
  0.674556255   0.174556241   0.150887505
  0.424556255   0.924556241   0.650887505
  0.049556255   0.549556241   0.400887505
  0.799556255   0.299556241   0.900887505
  0.549556255   0.049556241   0.400887505
  0.299556255   0.799556241   0.900887505
  0.700443741   0.700443741   0.099112505
  0.450443741   0.450443741   0.599112505
  0.200443741   0.200443741   0.099112505
  0.950443741   0.950443741   0.599112505
  0.575443741   0.575443741   0.349112505
  0.325443741   0.325443741   0.849112505
  0.075443741   0.075443741   0.349112505
  0.825443741   0.825443741   0.849112505
