BCC Zr,Y,O str #: 10
1.000
  0.000000000  0.000000000  5.230000000
 -3.599999900  7.199999800  0.000000000
 -7.199999800  0.000000000  0.000000000
  Ce  Zr  O
  1  7  16
Direct
  0.500000000   0.750000007   0.874999990
  0.000000000   0.000000000   0.000000000
  0.000000000   0.500000000   0.750000000
  0.000000000  -0.000000000   0.500000000
  0.000000000   0.500000000   0.250000000
  0.500000000   0.250000007   0.624999990
  0.500000000   0.750000007   0.374999990
  0.500000000   0.250000007   0.124999990
  0.301775010   0.250000007   0.874999997
  0.301775010   0.750000007   0.624999997
  0.301775010   0.250000007   0.374999997
  0.301775010   0.750000007   0.124999997
  0.801775010   0.250000007   0.874999997
  0.801775010   0.750000007   0.624999997
  0.801775010   0.250000007   0.374999997
  0.801775010   0.750000007   0.124999997
  0.198225010   0.000000000   0.749999993
  0.198225010   0.500000000   0.499999993
  0.198225010  -0.000000000   0.249999993
  0.198225010   0.500000000  -0.000000007
  0.698225010   0.000000000   0.749999993
  0.698225010   0.500000000   0.499999993
  0.698225010  -0.000000000   0.249999993
  0.698225010   0.500000000  -0.000000007
