BCC Zr,Y,O str #: 12
1.000
  3.599999900  3.599999900  0.000000000
 -7.199999800  7.199999800  0.000000000
  0.000000000  0.000000000  5.230000000
  Ce  Zr  O
  1  7  16
Direct
  0.000000014   0.750000000   0.500000000
  0.000000000   0.000000000   0.000000000
  0.500000000   0.250000000   0.000000000
 -0.000000000   0.500000000   0.000000000
  0.500000000   0.750000000   0.000000000
  0.500000014  -0.000000000   0.500000000
  0.000000014   0.250000000   0.500000000
  0.500000014   0.500000000   0.500000000
  0.250000007   0.125000003   0.301775010
  0.750000007   0.375000003   0.301775010
  0.250000007   0.625000003   0.301775010
  0.750000007   0.875000003   0.301775010
  0.250000007   0.125000003   0.801775010
  0.750000007   0.375000003   0.801775010
  0.250000007   0.625000003   0.801775010
  0.750000007   0.875000003   0.801775010
  0.250000007   0.874999997   0.198225010
  0.750000007   0.124999997   0.198225010
  0.250000007   0.374999997   0.198225010
  0.750000007   0.624999997   0.198225010
  0.250000007   0.874999997   0.698225010
  0.750000007   0.124999997   0.698225010
  0.250000007   0.374999997   0.698225010
  0.750000007   0.624999997   0.698225010
