BCC Zr,Y,O str #: 2
1.000
  3.599999900  0.000000000  0.000000000
  0.000000000  14.399999600  0.000000000
  0.000000000  0.000000000  5.230000000
  Ce  Zr  O
  1  7  16
Direct
  0.500000014   0.875000003   0.500000000
  0.000000000   0.000000000   0.000000000
  0.000000000   0.250000000   0.000000000
  0.000000000   0.500000000   0.000000000
  0.000000000   0.750000000   0.000000000
  0.500000014   0.125000003   0.500000000
  0.500000014   0.375000003   0.500000000
  0.500000014   0.625000003   0.500000000
  0.000000000   0.125000003   0.301775010
  0.000000000   0.375000003   0.301775010
  0.000000000   0.625000003   0.301775010
  0.000000000   0.875000003   0.301775010
  0.000000000   0.125000003   0.801775010
  0.000000000   0.375000003   0.801775010
  0.000000000   0.625000003   0.801775010
  0.000000000   0.875000003   0.801775010
  0.500000014   0.000000000   0.198225010
  0.500000014   0.250000000   0.198225010
  0.500000014   0.500000000   0.198225010
  0.500000014   0.750000000   0.198225010
  0.500000014   0.000000000   0.698225010
  0.500000014   0.250000000   0.698225010
  0.500000014   0.500000000   0.698225010
  0.500000014   0.750000000   0.698225010
