BCC Zr,Y,O str #: 9
1.000
  3.599999900  0.000000000  5.230000000
 -3.599999900  7.199999800  0.000000000
 -3.599999900  0.000000000  5.230000000
  Ce  Zr  O
  1  7  16
Direct
  0.875000010   0.750000007   0.624999990
  0.000000000   0.000000000   0.000000000
  0.500000000   0.000000000   0.500000000
  0.250000000   0.500000000   0.750000000
  0.750000000   0.500000000   0.250000000
  0.625000010   0.250000007   0.874999990
  0.125000010   0.250000007   0.374999990
  0.375000010   0.750000007   0.124999990
  0.275887508   0.250000007   0.025887501
  0.775887508   0.250000007   0.525887501
  0.525887508   0.750000007   0.775887501
  0.025887508   0.750000007   0.275887501
  0.525887508   0.250000007   0.275887501
  0.025887508   0.250000007   0.775887501
  0.775887508   0.750000007   0.025887501
  0.275887508   0.750000007   0.525887501
  0.349112512   0.000000000   0.849112498
  0.849112512   0.000000000   0.349112498
  0.599112512   0.500000000   0.599112498
  0.099112512   0.500000000   0.099112498
  0.599112512   0.000000000   0.099112498
  0.099112512   0.000000000   0.599112498
  0.849112512   0.500000000   0.849112498
  0.349112512   0.500000000   0.349112498
