BCC Zr,Y,O str #: 7
1.000
  3.599999900  0.000000000  0.000000000
  0.000000000  7.199999800  5.230000000
  0.000000000 -7.199999800  5.230000000
  Ce  Zr  O
  1  7  16
Direct
  0.500000014   0.625000003   0.874999997
  0.000000000   0.000000000   0.000000000
  0.000000000   0.500000000   0.500000000
  0.000000000   0.250000000   0.750000000
  0.000000000   0.750000000   0.250000000
  0.500000014   0.375000003   0.124999997
  0.500000014   0.875000003   0.624999997
  0.500000014   0.125000003   0.374999997
  0.000000000   0.275887508   0.025887501
  0.000000000   0.775887508   0.525887501
  0.000000000   0.525887508   0.775887501
  0.000000000   0.025887508   0.275887501
  0.000000000   0.525887508   0.275887501
  0.000000000   0.025887508   0.775887501
  0.000000000   0.775887508   0.025887501
  0.000000000   0.275887508   0.525887501
  0.500000014   0.099112505   0.099112505
  0.500000014   0.599112505   0.599112505
  0.500000014   0.349112505   0.849112505
  0.500000014   0.849112505   0.349112505
  0.500000014   0.349112505   0.349112505
  0.500000014   0.849112505   0.849112505
  0.500000014   0.599112505   0.099112505
  0.500000014   0.099112505   0.599112505
