BCC Zr,Y,O str #: 17
1.000
  0.000000000  0.000000000  5.230000000
  7.199999800  0.000000000  0.000000000
  0.000000000  7.199999800  0.000000000
  Ce  Zr  O
  1  7  16
Direct
  0.500000000   0.750000007   0.750000007
  0.000000000   0.000000000   0.000000000
  0.000000000   0.000000000   0.500000000
  0.000000000   0.500000000   0.000000000
  0.000000000   0.500000000   0.500000000
  0.500000000   0.250000007   0.250000007
  0.500000000   0.250000007   0.750000007
  0.500000000   0.750000007   0.250000007
  0.301775010   0.000000000   0.250000007
  0.301775010   0.000000000   0.750000007
  0.301775010   0.500000000   0.250000007
  0.301775010   0.500000000   0.750000007
  0.801775010   0.000000000   0.250000007
  0.801775010   0.000000000   0.750000007
  0.801775010   0.500000000   0.250000007
  0.801775010   0.500000000   0.750000007
  0.198225010   0.250000007   0.000000000
  0.198225010   0.250000007   0.500000000
  0.198225010   0.750000007   0.000000000
  0.198225010   0.750000007   0.500000000
  0.698225010   0.250000007   0.000000000
  0.698225010   0.250000007   0.500000000
  0.698225010   0.750000007   0.000000000
  0.698225010   0.750000007   0.500000000
