BCC Zr,Y,O str #: 6
1.000
 -3.599999900  3.599999900  0.000000000
 -7.199999800 -3.599999900  5.230000000
  3.599999900  0.000000000  5.230000000
  Ce  Zr  O
  1  7  16
Direct
  0.125000007   0.624999993   0.875000007
  0.000000000   0.000000000   0.000000000
  0.250000000   0.250000000   0.750000000
  0.500000000   0.500000000   0.500000000
  0.750000000   0.750000000   0.250000000
  0.375000007   0.874999993   0.625000007
  0.625000007   0.124999993   0.375000007
  0.875000007   0.374999993   0.125000007
  0.450443763   0.950443749   0.351331261
  0.700443763   0.200443749   0.101331261
  0.950443763   0.450443749   0.851331261
  0.200443763   0.700443749   0.601331261
  0.575443763   0.075443749   0.726331261
  0.825443763   0.325443749   0.476331261
  0.075443763   0.575443749   0.226331261
  0.325443763   0.825443749   0.976331261
  0.924556249   0.924556249   0.273668761
  0.174556249   0.174556249   0.023668761
  0.424556249   0.424556249   0.773668761
  0.674556249   0.674556249   0.523668761
  0.049556249   0.049556249   0.648668761
  0.299556249   0.299556249   0.398668761
  0.549556249   0.549556249   0.148668761
  0.799556249   0.799556249   0.898668761
