BCC Zr,Y,O str #: 13
1.000
  3.599999900  0.000000000  0.000000000
  0.000000000  7.199999800  0.000000000
  0.000000000  0.000000000  10.460000000
  Ce  Zr  O
  1  7  16
Direct
  0.500000014   0.750000007   0.750000000
  0.000000000   0.000000000   0.000000000
  0.000000000   0.000000000   0.500000000
  0.000000000   0.500000000   0.000000000
  0.000000000   0.500000000   0.500000000
  0.500000014   0.250000007   0.250000000
  0.500000014   0.250000007   0.750000000
  0.500000014   0.750000007   0.250000000
  0.000000000   0.250000007   0.150887505
  0.000000000   0.250000007   0.650887505
  0.000000000   0.750000007   0.150887505
  0.000000000   0.750000007   0.650887505
  0.000000000   0.250000007   0.400887505
  0.000000000   0.250000007   0.900887505
  0.000000000   0.750000007   0.400887505
  0.000000000   0.750000007   0.900887505
  0.500000014   0.000000000   0.099112505
  0.500000014   0.000000000   0.599112505
  0.500000014   0.500000000   0.099112505
  0.500000014   0.500000000   0.599112505
  0.500000014   0.000000000   0.349112505
  0.500000014   0.000000000   0.849112505
  0.500000014   0.500000000   0.349112505
  0.500000014   0.500000000   0.849112505
